W=6;
H=4;

MAX_TIME=10;
MAX_TRACKS=8;

TARGET=(4,6);

TRAINS=[(4,1,RIGHT),(1,6,LEFT),(1,1,RIGHT)];
DECOYS=[];

INIT_POS=[
(1,1,STRAIGHT_RL),
(1,2,STRAIGHT_RL),
(1,5,STRAIGHT_RL),
(1,6,STRAIGHT_RL),
(2,3,CORNER_TL),
(2,4,CORNER_TR),
(3,3,CORNER_DL),
(3,4,CORNER_DR),
(4,1,STRAIGHT_RL),
(4,2,STRAIGHT_RL),
(4,5,STRAIGHT_RL),
(4,6,STRAIGHT_RL),
];
TUNNEL_PAIRS=[];

GATES=[];
ACTIVATIONS=[];

DSWITCHES=[];

STATIONS=[];
